param set_len = 16;
param target = 2025618;
param values := [0] 397245 [1] 521123 [2] 95821 [3] 382365 [4] 316882 [5] 360655 [6] 164183 [7] 210576 [8] 410103 [9] 112735 [10] 189603 [11] 166340 [12] 483268 [13] 362309 [14] 520153 [15] 320652 ;
